db/data/190432154688083097261192407386503557.z3.out
-------------------
2500.132692837
